Star-Searcher/search_planner/search_planner/utils/lkh_tsp_solver/resource/single.tsp
NAME : single
TYPE : ATSP
DIMENSION : 4
EDGE_WEIGHT_TYPE : EXPLICIT
EDGE_WEIGHT_FORMAT : FULL_MATRIX
EDGE_WEIGHT_SECTION
0 294 326 6553600 
6553600 0 31 266 
6553600 31 0 288 
0 6553600 6553600 0 
EOF