Star-Searcher/search_planner/search_planner/utils/lkh_tsp_solver/resource/single.txt
NAME : single.613.tour
COMMENT : Length = 613
COMMENT : Found by LKH [Keld Helsgaun] Wed Aug  6 12:27:07 2025
TYPE : TOUR
DIMENSION : 4
TOUR_SECTION
1
2
3
4
-1
EOF
